<?xml version="1.0" encoding="UTF-8"?><osil xmlns="os.optimizationservices.org" xmlns:xsi="http://www.w3.org/2001/XMLSchema-instance" xsi:schemaLocation="os.optimizationservices.org http://www.optimizationservices.org/schemas/2.0/OSiL.xsd"><instanceHeader><name>st_miqp4</name></instanceHeader><instanceData><variables numberOfVariables="6"><var name="i1" type="I" ub="1"/><var name="i2" type="I" ub="1"/><var name="i3" type="I" ub="1"/><var name="x4" ub="1e15"/><var name="x5" ub="1e15"/><var name="x6" ub="1e15"/></variables><objectives><obj maxOrMin="min" name="defObj_objvar" numberOfObjCoef="6"><coef idx="0">10</coef><coef idx="1">-4</coef><coef idx="2">5</coef><coef idx="3">2</coef><coef idx="4">3</coef><coef idx="5">-500</coef></obj></objectives><constraints numberOfConstraints="4"><con name="e1" lb="0"/><con name="e2" ub="0"/><con name="e3" ub="0"/><con name="e4" ub="0"/></constraints><linearConstraintCoefficients numberOfValues="9"><start><el>0</el><el mult="4" incr="2">3</el></start><colIdx><el mult="3" incr="1">3</el><el>0</el><el>3</el><el>1</el><el>4</el><el>2</el><el>5</el></colIdx><value><el mult="2">1</el><el>-1</el><el>-5</el><el>1</el><el>-10</el><el>1</el><el>-30</el><el>1</el></value></linearConstraintCoefficients><quadraticCoefficients numberOfQuadraticTerms="3"><qTerm idx="-1" idxOne="3" idxTwo="3" coef="5"/><qTerm idx="-1" idxOne="4" idxTwo="4" coef="5"/><qTerm idx="-1" idxOne="5" idxTwo="5" coef="10"/></quadraticCoefficients></instanceData></osil>